p cnf 200 1110
-101 13 0
-101 6 0
-101 42 0
-101 21 0
-101 -32 0
-101 93 0
-101 29 0
-101 -18 0
-101 -36 0
-101 -1 0
101 -13 -6 -42 -21 32 -93 -29 18 36 1 0
-102 -3 0
-102 100 0
-102 20 0
-102 53 0
-102 19 0
-102 -41 0
-102 -9 0
-102 -2 0
-102 -80 0
-102 -7 0
102 3 -100 -20 -53 -19 41 9 2 80 7 0
-103 76 0
-103 -90 0
-103 -14 0
-103 -53 0
-103 68 0
-103 4 0
-103 -24 0
-103 -18 0
-103 -30 0
-103 82 0
103 -76 90 14 53 -68 -4 24 18 30 -82 0
-104 -14 0
-104 -67 0
-104 79 0
-104 -97 0
-104 46 0
-104 71 0
-104 34 0
-104 26 0
-104 -80 0
-104 -90 0
104 14 67 -79 97 -46 -71 -34 -26 80 90 0
-105 19 0
-105 -76 0
-105 -39 0
-105 8 0
-105 69 0
-105 22 0
-105 -79 0
-105 -21 0
-105 49 0
-105 -99 0
105 -19 76 39 -8 -69 -22 79 21 -49 99 0
-106 -63 0
-106 -1 0
-106 57 0
-106 -22 0
-106 -54 0
-106 34 0
-106 -73 0
-106 -98 0
-106 -100 0
-106 82 0
106 63 1 -57 22 54 -34 73 98 100 -82 0
-107 94 0
-107 -40 0
-107 15 0
-107 -28 0
-107 -88 0
-107 -77 0
-107 -68 0
-107 -84 0
-107 75 0
-107 -87 0
107 -94 40 -15 28 88 77 68 84 -75 87 0
-108 -8 0
-108 -49 0
-108 70 0
-108 12 0
-108 65 0
-108 32 0
-108 -44 0
-108 40 0
-108 81 0
-108 47 0
108 8 49 -70 -12 -65 -32 44 -40 -81 -47 0
-109 88 0
-109 -22 0
-109 16 0
-109 29 0
-109 90 0
-109 -27 0
-109 47 0
-109 34 0
-109 -50 0
-109 64 0
109 -88 22 -16 -29 -90 27 -47 -34 50 -64 0
-110 69 0
-110 -77 0
-110 -50 0
-110 -18 0
-110 -22 0
-110 84 0
-110 5 0
-110 54 0
-110 43 0
-110 59 0
110 -69 77 50 18 22 -84 -5 -54 -43 -59 0
101 102 103 104 105 106 107 108 109 110 0
-111 -78 0
-111 93 0
-111 40 0
-111 57 0
-111 -83 0
-111 27 0
-111 44 0
-111 -48 0
-111 -96 0
-111 37 0
111 78 -93 -40 -57 83 -27 -44 48 96 -37 0
-112 -20 0
-112 -30 0
-112 66 0
-112 24 0
-112 -79 0
-112 -37 0
-112 65 0
-112 -33 0
-112 88 0
-112 55 0
112 20 30 -66 -24 79 37 -65 33 -88 -55 0
-113 -78 0
-113 52 0
-113 55 0
-113 -89 0
-113 43 0
-113 -40 0
-113 -99 0
-113 33 0
-113 36 0
-113 48 0
113 78 -52 -55 89 -43 40 99 -33 -36 -48 0
-114 -80 0
-114 -49 0
-114 65 0
-114 53 0
-114 12 0
-114 11 0
-114 51 0
-114 -32 0
-114 -16 0
-114 -1 0
114 80 49 -65 -53 -12 -11 -51 32 16 1 0
-115 70 0
-115 46 0
-115 21 0
-115 76 0
-115 38 0
-115 -7 0
-115 -65 0
-115 -99 0
-115 20 0
-115 61 0
115 -70 -46 -21 -76 -38 7 65 99 -20 -61 0
-116 21 0
-116 -99 0
-116 -51 0
-116 44 0
-116 -85 0
-116 45 0
-116 49 0
-116 13 0
-116 -61 0
-116 88 0
116 -21 99 51 -44 85 -45 -49 -13 61 -88 0
-117 93 0
-117 -89 0
-117 -85 0
-117 -6 0
-117 60 0
-117 49 0
-117 90 0
-117 -1 0
-117 70 0
-117 -77 0
117 -93 89 85 6 -60 -49 -90 1 -70 77 0
-118 -69 0
-118 -61 0
-118 -12 0
-118 23 0
-118 -16 0
-118 -21 0
-118 57 0
-118 -11 0
-118 -20 0
-118 7 0
118 69 61 12 -23 16 21 -57 11 20 -7 0
-119 -94 0
-119 -13 0
-119 -87 0
-119 61 0
-119 -84 0
-119 56 0
-119 -21 0
-119 -20 0
-119 18 0
-119 -31 0
119 94 13 87 -61 84 -56 21 20 -18 31 0
-120 -45 0
-120 15 0
-120 42 0
-120 91 0
-120 -51 0
-120 -14 0
-120 -87 0
-120 46 0
-120 9 0
-120 60 0
120 45 -15 -42 -91 51 14 87 -46 -9 -60 0
111 112 113 114 115 116 117 118 119 120 0
-121 13 0
-121 48 0
-121 54 0
-121 -99 0
-121 39 0
-121 -29 0
-121 -40 0
-121 -59 0
-121 -76 0
-121 -69 0
121 -13 -48 -54 99 -39 29 40 59 76 69 0
-122 -81 0
-122 80 0
-122 -36 0
-122 73 0
-122 -40 0
-122 4 0
-122 99 0
-122 78 0
-122 98 0
-122 -91 0
122 81 -80 36 -73 40 -4 -99 -78 -98 91 0
-123 -66 0
-123 -24 0
-123 51 0
-123 -22 0
-123 77 0
-123 -5 0
-123 46 0
-123 -12 0
-123 17 0
-123 -13 0
123 66 24 -51 22 -77 5 -46 12 -17 13 0
-124 48 0
-124 -16 0
-124 -52 0
-124 1 0
-124 58 0
-124 -12 0
-124 53 0
-124 45 0
-124 -13 0
-124 29 0
124 -48 16 52 -1 -58 12 -53 -45 13 -29 0
-125 -95 0
-125 37 0
-125 -7 0
-125 -14 0
-125 51 0
-125 21 0
-125 41 0
-125 -47 0
-125 76 0
-125 66 0
125 95 -37 7 14 -51 -21 -41 47 -76 -66 0
-126 -72 0
-126 -28 0
-126 92 0
-126 33 0
-126 -86 0
-126 29 0
-126 58 0
-126 -11 0
-126 -39 0
-126 65 0
126 72 28 -92 -33 86 -29 -58 11 39 -65 0
-127 75 0
-127 81 0
-127 -14 0
-127 -89 0
-127 -35 0
-127 83 0
-127 23 0
-127 -19 0
-127 -67 0
-127 47 0
127 -75 -81 14 89 35 -83 -23 19 67 -47 0
-128 76 0
-128 38 0
-128 22 0
-128 -40 0
-128 -26 0
-128 -86 0
-128 -70 0
-128 81 0
-128 -47 0
-128 66 0
128 -76 -38 -22 40 26 86 70 -81 47 -66 0
-129 -97 0
-129 -98 0
-129 -4 0
-129 91 0
-129 86 0
-129 -95 0
-129 -26 0
-129 -51 0
-129 -7 0
-129 -9 0
129 97 98 4 -91 -86 95 26 51 7 9 0
-130 81 0
-130 73 0
-130 -78 0
-130 -90 0
-130 41 0
-130 9 0
-130 58 0
-130 -13 0
-130 -18 0
-130 30 0
130 -81 -73 78 90 -41 -9 -58 13 18 -30 0
121 122 123 124 125 126 127 128 129 130 0
-131 -18 0
-131 -72 0
-131 -9 0
-131 42 0
-131 79 0
-131 -56 0
-131 -16 0
-131 76 0
-131 -100 0
-131 -95 0
131 18 72 9 -42 -79 56 16 -76 100 95 0
-132 -44 0
-132 -68 0
-132 69 0
-132 79 0
-132 97 0
-132 -8 0
-132 82 0
-132 -64 0
-132 1 0
-132 -19 0
132 44 68 -69 -79 -97 8 -82 64 -1 19 0
-133 72 0
-133 -55 0
-133 -97 0
-133 -60 0
-133 -39 0
-133 57 0
-133 62 0
-133 44 0
-133 -79 0
-133 34 0
133 -72 55 97 60 39 -57 -62 -44 79 -34 0
-134 -46 0
-134 -50 0
-134 -49 0
-134 44 0
-134 54 0
-134 -30 0
-134 56 0
-134 -55 0
-134 83 0
-134 40 0
134 46 50 49 -44 -54 30 -56 55 -83 -40 0
-135 -74 0
-135 -16 0
-135 -51 0
-135 -92 0
-135 -2 0
-135 32 0
-135 46 0
-135 -93 0
-135 -77 0
-135 -88 0
135 74 16 51 92 2 -32 -46 93 77 88 0
-136 -71 0
-136 52 0
-136 -15 0
-136 88 0
-136 54 0
-136 32 0
-136 9 0
-136 46 0
-136 45 0
-136 -20 0
136 71 -52 15 -88 -54 -32 -9 -46 -45 20 0
-137 -58 0
-137 -66 0
-137 -45 0
-137 -90 0
-137 96 0
-137 97 0
-137 64 0
-137 4 0
-137 13 0
-137 -67 0
137 58 66 45 90 -96 -97 -64 -4 -13 67 0
-138 -11 0
-138 7 0
-138 76 0
-138 6 0
-138 14 0
-138 62 0
-138 -75 0
-138 70 0
-138 100 0
-138 49 0
138 11 -7 -76 -6 -14 -62 75 -70 -100 -49 0
-139 36 0
-139 13 0
-139 -98 0
-139 -24 0
-139 -6 0
-139 -19 0
-139 -81 0
-139 -34 0
-139 54 0
-139 20 0
139 -36 -13 98 24 6 19 81 34 -54 -20 0
-140 78 0
-140 -44 0
-140 81 0
-140 34 0
-140 -62 0
-140 61 0
-140 -38 0
-140 86 0
-140 16 0
-140 65 0
140 -78 44 -81 -34 62 -61 38 -86 -16 -65 0
131 132 133 134 135 136 137 138 139 140 0
-141 -38 0
-141 21 0
-141 -83 0
-141 1 0
-141 -68 0
-141 29 0
-141 -16 0
-141 98 0
-141 -8 0
-141 -78 0
141 38 -21 83 -1 68 -29 16 -98 8 78 0
-142 63 0
-142 50 0
-142 -54 0
-142 44 0
-142 -32 0
-142 -68 0
-142 58 0
-142 -83 0
-142 -62 0
-142 33 0
142 -63 -50 54 -44 32 68 -58 83 62 -33 0
-143 57 0
-143 66 0
-143 -55 0
-143 100 0
-143 -59 0
-143 99 0
-143 84 0
-143 -81 0
-143 -52 0
-143 -97 0
143 -57 -66 55 -100 59 -99 -84 81 52 97 0
-144 60 0
-144 -47 0
-144 -49 0
-144 -19 0
-144 -30 0
-144 16 0
-144 78 0
-144 -28 0
-144 5 0
-144 22 0
144 -60 47 49 19 30 -16 -78 28 -5 -22 0
-145 79 0
-145 -91 0
-145 -17 0
-145 61 0
-145 5 0
-145 -98 0
-145 -36 0
-145 37 0
-145 51 0
-145 4 0
145 -79 91 17 -61 -5 98 36 -37 -51 -4 0
-146 68 0
-146 63 0
-146 3 0
-146 -13 0
-146 73 0
-146 17 0
-146 -76 0
-146 10 0
-146 89 0
-146 12 0
146 -68 -63 -3 13 -73 -17 76 -10 -89 -12 0
-147 -35 0
-147 59 0
-147 -25 0
-147 -22 0
-147 -72 0
-147 -91 0
-147 -3 0
-147 -42 0
-147 -64 0
-147 -71 0
147 35 -59 25 22 72 91 3 42 64 71 0
-148 88 0
-148 16 0
-148 -18 0
-148 -76 0
-148 -92 0
-148 19 0
-148 -71 0
-148 60 0
-148 -50 0
-148 54 0
148 -88 -16 18 76 92 -19 71 -60 50 -54 0
-149 -44 0
-149 30 0
-149 -11 0
-149 32 0
-149 12 0
-149 -88 0
-149 -13 0
-149 81 0
-149 -60 0
-149 -6 0
149 44 -30 11 -32 -12 88 13 -81 60 6 0
-150 99 0
-150 41 0
-150 -17 0
-150 30 0
-150 -8 0
-150 68 0
-150 38 0
-150 -39 0
-150 69 0
-150 14 0
150 -99 -41 17 -30 8 -68 -38 39 -69 -14 0
141 142 143 144 145 146 147 148 149 150 0
-151 -1 0
-151 -60 0
-151 73 0
-151 26 0
-151 -99 0
-151 88 0
-151 -46 0
-151 -39 0
-151 62 0
-151 69 0
151 1 60 -73 -26 99 -88 46 39 -62 -69 0
-152 -64 0
-152 -43 0
-152 -29 0
-152 -71 0
-152 3 0
-152 -59 0
-152 -94 0
-152 10 0
-152 -6 0
-152 78 0
152 64 43 29 71 -3 59 94 -10 6 -78 0
-153 -74 0
-153 48 0
-153 -90 0
-153 69 0
-153 1 0
-153 17 0
-153 47 0
-153 66 0
-153 5 0
-153 -2 0
153 74 -48 90 -69 -1 -17 -47 -66 -5 2 0
-154 -31 0
-154 38 0
-154 32 0
-154 17 0
-154 16 0
-154 97 0
-154 1 0
-154 25 0
-154 86 0
-154 82 0
154 31 -38 -32 -17 -16 -97 -1 -25 -86 -82 0
-155 -72 0
-155 -35 0
-155 -92 0
-155 30 0
-155 -78 0
-155 65 0
-155 -94 0
-155 -95 0
-155 37 0
-155 -76 0
155 72 35 92 -30 78 -65 94 95 -37 76 0
-156 2 0
-156 42 0
-156 -22 0
-156 95 0
-156 53 0
-156 -24 0
-156 -83 0
-156 80 0
-156 -88 0
-156 -86 0
156 -2 -42 22 -95 -53 24 83 -80 88 86 0
-157 -88 0
-157 -71 0
-157 -33 0
-157 -58 0
-157 55 0
-157 99 0
-157 5 0
-157 -54 0
-157 10 0
-157 30 0
157 88 71 33 58 -55 -99 -5 54 -10 -30 0
-158 60 0
-158 -33 0
-158 26 0
-158 -86 0
-158 18 0
-158 99 0
-158 51 0
-158 -100 0
-158 -35 0
-158 -82 0
158 -60 33 -26 86 -18 -99 -51 100 35 82 0
-159 11 0
-159 54 0
-159 72 0
-159 89 0
-159 76 0
-159 86 0
-159 -6 0
-159 73 0
-159 -97 0
-159 -23 0
159 -11 -54 -72 -89 -76 -86 6 -73 97 23 0
-160 87 0
-160 88 0
-160 59 0
-160 65 0
-160 40 0
-160 24 0
-160 -37 0
-160 45 0
-160 19 0
-160 11 0
160 -87 -88 -59 -65 -40 -24 37 -45 -19 -11 0
151 152 153 154 155 156 157 158 159 160 0
-161 80 0
-161 -59 0
-161 35 0
-161 -38 0
-161 94 0
-161 64 0
-161 -93 0
-161 -53 0
-161 32 0
-161 96 0
161 -80 59 -35 38 -94 -64 93 53 -32 -96 0
-162 -78 0
-162 17 0
-162 -39 0
-162 10 0
-162 -35 0
-162 51 0
-162 70 0
-162 4 0
-162 25 0
-162 73 0
162 78 -17 39 -10 35 -51 -70 -4 -25 -73 0
-163 99 0
-163 -87 0
-163 18 0
-163 82 0
-163 -68 0
-163 11 0
-163 23 0
-163 -39 0
-163 100 0
-163 -33 0
163 -99 87 -18 -82 68 -11 -23 39 -100 33 0
-164 -88 0
-164 33 0
-164 5 0
-164 -62 0
-164 84 0
-164 56 0
-164 22 0
-164 -35 0
-164 20 0
-164 99 0
164 88 -33 -5 62 -84 -56 -22 35 -20 -99 0
-165 36 0
-165 29 0
-165 -41 0
-165 -42 0
-165 -83 0
-165 67 0
-165 -12 0
-165 21 0
-165 55 0
-165 -28 0
165 -36 -29 41 42 83 -67 12 -21 -55 28 0
-166 80 0
-166 72 0
-166 -73 0
-166 100 0
-166 16 0
-166 79 0
-166 -64 0
-166 -32 0
-166 -22 0
-166 65 0
166 -80 -72 73 -100 -16 -79 64 32 22 -65 0
-167 -10 0
-167 32 0
-167 -72 0
-167 19 0
-167 -87 0
-167 95 0
-167 -99 0
-167 8 0
-167 -26 0
-167 74 0
167 10 -32 72 -19 87 -95 99 -8 26 -74 0
-168 -65 0
-168 95 0
-168 84 0
-168 66 0
-168 42 0
-168 94 0
-168 50 0
-168 -53 0
-168 -51 0
-168 99 0
168 65 -95 -84 -66 -42 -94 -50 53 51 -99 0
-169 76 0
-169 69 0
-169 -44 0
-169 66 0
-169 94 0
-169 -14 0
-169 -39 0
-169 19 0
-169 16 0
-169 78 0
169 -76 -69 44 -66 -94 14 39 -19 -16 -78 0
-170 -56 0
-170 -42 0
-170 15 0
-170 92 0
-170 62 0
-170 8 0
-170 -28 0
-170 -43 0
-170 100 0
-170 -94 0
170 56 42 -15 -92 -62 -8 28 43 -100 94 0
161 162 163 164 165 166 167 168 169 170 0
-171 -45 0
-171 -8 0
-171 17 0
-171 -18 0
-171 99 0
-171 74 0
-171 79 0
-171 3 0
-171 84 0
-171 28 0
171 45 8 -17 18 -99 -74 -79 -3 -84 -28 0
-172 57 0
-172 -62 0
-172 90 0
-172 -87 0
-172 -44 0
-172 60 0
-172 16 0
-172 38 0
-172 -13 0
-172 -63 0
172 -57 62 -90 87 44 -60 -16 -38 13 63 0
-173 -25 0
-173 33 0
-173 -59 0
-173 5 0
-173 70 0
-173 -58 0
-173 49 0
-173 91 0
-173 18 0
-173 71 0
173 25 -33 59 -5 -70 58 -49 -91 -18 -71 0
-174 -74 0
-174 100 0
-174 32 0
-174 72 0
-174 -98 0
-174 29 0
-174 33 0
-174 95 0
-174 -43 0
-174 92 0
174 74 -100 -32 -72 98 -29 -33 -95 43 -92 0
-175 -8 0
-175 -80 0
-175 -98 0
-175 15 0
-175 -3 0
-175 81 0
-175 22 0
-175 1 0
-175 77 0
-175 37 0
175 8 80 98 -15 3 -81 -22 -1 -77 -37 0
-176 13 0
-176 -69 0
-176 83 0
-176 -66 0
-176 100 0
-176 3 0
-176 -49 0
-176 -24 0
-176 37 0
-176 56 0
176 -13 69 -83 66 -100 -3 49 24 -37 -56 0
-177 -55 0
-177 41 0
-177 52 0
-177 -34 0
-177 18 0
-177 -73 0
-177 -76 0
-177 67 0
-177 7 0
-177 89 0
177 55 -41 -52 34 -18 73 76 -67 -7 -89 0
-178 -1 0
-178 -28 0
-178 8 0
-178 -58 0
-178 -98 0
-178 -32 0
-178 68 0
-178 80 0
-178 37 0
-178 -40 0
178 1 28 -8 58 98 32 -68 -80 -37 40 0
-179 -29 0
-179 88 0
-179 95 0
-179 98 0
-179 -69 0
-179 -92 0
-179 86 0
-179 -32 0
-179 23 0
-179 -64 0
179 29 -88 -95 -98 69 92 -86 32 -23 64 0
-180 31 0
-180 -67 0
-180 44 0
-180 -25 0
-180 88 0
-180 95 0
-180 -68 0
-180 -43 0
-180 97 0
-180 63 0
180 -31 67 -44 25 -88 -95 68 43 -97 -63 0
171 172 173 174 175 176 177 178 179 180 0
-181 3 0
-181 -88 0
-181 69 0
-181 66 0
-181 27 0
-181 -24 0
-181 74 0
-181 92 0
-181 -25 0
-181 38 0
181 -3 88 -69 -66 -27 24 -74 -92 25 -38 0
-182 -3 0
-182 15 0
-182 93 0
-182 12 0
-182 90 0
-182 -14 0
-182 -87 0
-182 -54 0
-182 -27 0
-182 49 0
182 3 -15 -93 -12 -90 14 87 54 27 -49 0
-183 -44 0
-183 37 0
-183 49 0
-183 -48 0
-183 17 0
-183 99 0
-183 16 0
-183 -58 0
-183 -84 0
-183 75 0
183 44 -37 -49 48 -17 -99 -16 58 84 -75 0
-184 -86 0
-184 24 0
-184 4 0
-184 99 0
-184 40 0
-184 9 0
-184 75 0
-184 14 0
-184 -79 0
-184 -85 0
184 86 -24 -4 -99 -40 -9 -75 -14 79 85 0
-185 -74 0
-185 -24 0
-185 -1 0
-185 -15 0
-185 54 0
-185 -91 0
-185 -99 0
-185 -33 0
-185 56 0
-185 69 0
185 74 24 1 15 -54 91 99 33 -56 -69 0
-186 99 0
-186 -81 0
-186 90 0
-186 66 0
-186 -73 0
-186 100 0
-186 -26 0
-186 -17 0
-186 -35 0
-186 -20 0
186 -99 81 -90 -66 73 -100 26 17 35 20 0
-187 -11 0
-187 -56 0
-187 62 0
-187 26 0
-187 36 0
-187 6 0
-187 44 0
-187 78 0
-187 90 0
-187 -58 0
187 11 56 -62 -26 -36 -6 -44 -78 -90 58 0
-188 -2 0
-188 92 0
-188 -7 0
-188 -98 0
-188 -85 0
-188 -99 0
-188 3 0
-188 -66 0
-188 -70 0
-188 -23 0
188 2 -92 7 98 85 99 -3 66 70 23 0
-189 -67 0
-189 -88 0
-189 -64 0
-189 44 0
-189 -7 0
-189 -100 0
-189 -46 0
-189 6 0
-189 -54 0
-189 -47 0
189 67 88 64 -44 7 100 46 -6 54 47 0
-190 -39 0
-190 76 0
-190 -58 0
-190 -34 0
-190 56 0
-190 -23 0
-190 -79 0
-190 1 0
-190 46 0
-190 -26 0
190 39 -76 58 34 -56 23 79 -1 -46 26 0
181 182 183 184 185 186 187 188 189 190 0
-191 -68 0
-191 65 0
-191 -85 0
-191 -47 0
-191 -84 0
-191 -33 0
-191 37 0
-191 -97 0
-191 60 0
-191 16 0
191 68 -65 85 47 84 33 -37 97 -60 -16 0
-192 36 0
-192 -67 0
-192 7 0
-192 -89 0
-192 -74 0
-192 4 0
-192 23 0
-192 -27 0
-192 85 0
-192 -25 0
192 -36 67 -7 89 74 -4 -23 27 -85 25 0
-193 31 0
-193 42 0
-193 74 0
-193 -47 0
-193 28 0
-193 -50 0
-193 46 0
-193 75 0
-193 54 0
-193 -77 0
193 -31 -42 -74 47 -28 50 -46 -75 -54 77 0
-194 90 0
-194 -18 0
-194 -10 0
-194 19 0
-194 4 0
-194 76 0
-194 75 0
-194 53 0
-194 9 0
-194 34 0
194 -90 18 10 -19 -4 -76 -75 -53 -9 -34 0
-195 -3 0
-195 9 0
-195 -11 0
-195 -69 0
-195 -32 0
-195 38 0
-195 7 0
-195 -16 0
-195 -13 0
-195 -65 0
195 3 -9 11 69 32 -38 -7 16 13 65 0
-196 66 0
-196 -52 0
-196 -100 0
-196 8 0
-196 12 0
-196 -99 0
-196 87 0
-196 92 0
-196 -25 0
-196 -63 0
196 -66 52 100 -8 -12 99 -87 -92 25 63 0
-197 73 0
-197 44 0
-197 -17 0
-197 89 0
-197 64 0
-197 82 0
-197 65 0
-197 8 0
-197 18 0
-197 78 0
197 -73 -44 17 -89 -64 -82 -65 -8 -18 -78 0
-198 -51 0
-198 -17 0
-198 -46 0
-198 -91 0
-198 -16 0
-198 47 0
-198 -41 0
-198 35 0
-198 85 0
-198 -30 0
198 51 17 46 91 16 -47 41 -35 -85 30 0
-199 79 0
-199 -100 0
-199 -60 0
-199 5 0
-199 61 0
-199 31 0
-199 65 0
-199 54 0
-199 42 0
-199 -86 0
199 -79 100 60 -5 -61 -31 -65 -54 -42 86 0
-200 -91 0
-200 -38 0
-200 16 0
-200 35 0
-200 66 0
-200 23 0
-200 -13 0
-200 81 0
-200 60 0
-200 -47 0
200 91 38 -16 -35 -66 -23 13 -81 -60 47 0
191 192 193 194 195 196 197 198 199 200 0
